Maximize
  - 2.7338955041412 edge_0_1_0_0 - 3.287717580606 edge_0_2_0_0
   + 0.1566700561386 edge_0_3_0_0 - 0.73165633159388 edge_0_5_0_0
   - 2.3421453472045 edge_0_6_0_0 - 2.9930450716887 edge_0_7_0_0
   - 0.73836478830348 edge_0_10_0_0 - 1.2089043062459 edge_0_13_0_0
   + 0.043928562436018 edge_1_2_0_0 + 0.9055046619387807 edge_1_3_0_0
   + 0.2536149917576926 edge_1_4_0_0 + 0.1643180883122294 edge_1_5_0_0
   - 0.5709896555002872 edge_1_6_0_0 + 0.0573585262124337 edge_1_7_0_0
   - 0.7594215454501084 edge_1_10_0_0 - 0.9932172805163523 edge_1_13_0_0
   + 0.1697850966267011 edge_2_1_0_0 + 1.256639934377206 edge_2_3_0_0
   + 0.0859112143994225 edge_2_4_0_0 - 0.4890399364096066 edge_2_6_0_0
   - 0.4002829476697903 edge_2_7_0_0 - 0.5445305278486871 edge_2_10_0_0
   - 0.4624379730006823 edge_2_11_0_0 - 1.381322565230602 edge_2_13_0_0
   + 0.7176784212758763 edge_2_20_0_0 + 2.039792912599097 edge_3_1_0_0
   + 2.982382345091099 edge_3_2_0_0 + 1.655258462968768 edge_3_4_0_0
   + 1.749205399749925 edge_3_5_0_0 + 0.631217594993107 edge_3_6_0_0
   + 1.788986752939198 edge_3_7_0_0 + 0.0348074596814351 edge_3_8_0_0
   - 0.2356958015332004 edge_3_9_0_0 + 0.4862979078116401 edge_3_10_0_0
   + 0.876794594817518 edge_3_11_0_0 + 1.571349955991757 edge_3_13_0_0
   - 0.5871164766436807 edge_3_14_0_0 - 0.5703287134851034 edge_3_15_0_0
   - 1.370617297301227 edge_3_16_0_0 - 0.6810361819328499 edge_3_18_0_0
   - 0.9522731446050732 edge_3_19_0_0 + 3.079013083990495 edge_3_20_0_0
   - 0.7942003275531819 edge_4_1_0_0 - 0.4149074177452041 edge_4_2_0_0
   - 0.2626608500373354 edge_4_3_0_0 - 0.0184285123595149 edge_4_5_0_0
   - 0.5747522368654012 edge_4_6_0_0 - 0.2469133020710618 edge_4_7_0_0
   - 0.6713650529360733 edge_4_10_0_0 + 0.6323406051252694 edge_5_1_0_0
   + 0.8924579021872149 edge_5_3_0_0 + 1.136222833340003 edge_5_4_0_0
   + 2.218791546172825 edge_5_7_0_0 + 1.065041402830698 edge_5_8_0_0
   + 0.3092395743224443 edge_5_9_0_0 + 1.2861869816488 edge_5_10_0_0
   + 1.711709816018244 edge_5_11_0_0 + 2.619892453051877 edge_5_13_0_0
   - 0.1367894746227122 edge_5_14_0_0 - 0.5201318504400743 edge_5_15_0_0
   - 0.3948396409080287 edge_5_18_0_0 - 0.2592381709564181 edge_5_19_0_0
   + 2.844645045415931 edge_5_20_0_0 - 0.1261863003058882 edge_6_1_0_0
   + 0.2643859695838859 edge_6_2_0_0 + 0.256631883680746 edge_6_3_0_0
   + 0.9409034337979822 edge_6_4_0_0 + 2.146810940992349 edge_6_7_0_0
   + 0.1389419241077765 edge_6_9_0_0 + 1.10168523811853 edge_6_10_0_0
   + 0.0447819084301492 edge_6_11_0_0 + 0.2196624659953978 edge_6_13_0_0
   + 0.0436057085897433 edge_6_14_0_0 - 0.469626805155881 edge_6_16_0_0
   - 0.1156914040464444 edge_6_18_0_0 - 0.4261588286224534 edge_6_19_0_0
   + 1.153793262994383 edge_6_20_0_0 - 1.095396756457082 edge_7_3_0_0
   - 0.730574421007401 edge_7_4_0_0 - 0.7343457972175768 edge_7_5_0_0
   - 0.4898136335762919 edge_7_6_0_0 + 0.0403439414286713 edge_7_8_0_0
   - 0.2469789325773869 edge_7_9_0_0 + 0.0831836663646 edge_7_10_0_0
   - 0.3078345907124642 edge_8_4_0_0 - 0.0741189683878864 edge_8_5_0_0
   + 0.9272610421732382 edge_8_7_0_0 + 0.4450708755864369 edge_8_9_0_0
   + 0.50783232305235 edge_8_10_0_0 + 0.4131535552256466 edge_8_11_0_0
   - 0.1234570577126256 edge_8_13_0_0 - 0.5835996436239311 edge_8_14_0_0
   - 0.5168553482958943 edge_8_15_0_0 - 0.3449143143234786 edge_8_18_0_0
   - 0.7506580620355242 edge_8_19_0_0 + 0.3839335393805517 edge_8_20_0_0
   - 0.6881332210083975 edge_9_1_0_0 - 0.2805415891798656 edge_9_4_0_0
   - 0.1383980059256386 edge_9_7_0_0 - 0.4057673318685807 edge_9_8_0_0
   + 0.1070103759928236 edge_9_11_0_0 - 0.2082921958364027 edge_9_13_0_0
   - 0.172944436400065 edge_9_14_0_0 - 0.298053504832053 edge_9_16_0_0
   - 0.5991584772416293 edge_9_19_0_0 - 0.159922068416068 edge_9_20_0_0
   + 0.29914549781475 edge_10_1_0_0 + 0.3175021783701657 edge_10_2_0_0
   + 0.9795175084403039 edge_10_3_0_0 + 1.0782227211454 edge_10_4_0_0
   + 0.47892546919525 edge_10_5_0_0 + 0.7422670020593282 edge_10_6_0_0
   + 1.287201229964 edge_10_7_0_0 + 2.8568085035025 edge_10_8_0_0
   + 3.6495499212249 edge_10_9_0_0 + 2.5896000185712 edge_10_11_0_0
   + 2.744880764758 edge_10_13_0_0 + 1.0968204932664 edge_10_14_0_0
   + 0.47783864504836 edge_10_15_0_0 + 1.178089075486199 edge_10_16_0_0
   + 0.8664521903244 edge_10_18_0_0 + 0.97243564599216 edge_10_19_0_0
   + 3.1995229431668 edge_10_20_0_0 - 1.406232882959401 edge_11_3_0_0
   - 0.6726708795906837 edge_11_8_0_0 + 0.021580515204829 edge_11_9_0_0
   - 0.25734203888814 edge_11_10_0_0 - 0.0436153750452044 edge_11_13_0_0
   - 0.2413919876597015 edge_11_14_0_0 - 0.3186704962174446 edge_11_15_0_0
   + 0.00958553944299429 edge_13_1_0_0 + 0.3571742647566929 edge_13_2_0_0
   + 1.256872254102896 edge_13_3_0_0 + 0.1366476916784971 edge_13_4_0_0
   - 1.420182575133831 edge_13_5_0_0 + 0.0222654209960924 edge_13_6_0_0
   - 0.2545134864730206 edge_13_7_0_0 + 0.0658484556033725 edge_13_8_0_0
   + 0.7176505823397924 edge_13_9_0_0 + 0.7256238367663833 edge_13_10_0_0
   + 0.5609611482926491 edge_13_11_0_0 + 2.814842425485477 edge_13_14_0_0
   + 1.018977432625988 edge_13_15_0_0 + 3.099316639310139 edge_13_16_0_0
   + 0.4729420180275088 edge_13_18_0_0 + 1.338601960554288 edge_13_19_0_0
   + 2.198201028107627 edge_13_20_0_0 - 0.2480442496353711 edge_14_9_0_0
   - 0.2531756714247729 edge_14_11_0_0 + 0.3501462679125475 edge_14_13_0_0
   + 0.5801054365270513 edge_14_15_0_0 + 0.00479374596357063 edge_14_16_0_0
   + 0.0527474647334809 edge_14_18_0_0 + 0.2930951785557734 edge_14_19_0_0
   + 0.0868803635152769 edge_14_20_0_0 - 0.8222437606121719 edge_15_1_0_0
   - 0.2727436441762831 edge_15_11_0_0 + 0.4204067597224702 edge_15_14_0_0
   + 0.4310322253948249 edge_15_18_0_0 + 0.2497823691770509 edge_15_19_0_0
   + 0.3303012109258914 edge_15_20_0_0 - 0.4891017951470591 edge_16_9_0_0
   - 1.082083243074536 edge_16_11_0_0 + 0.081077870985345 edge_16_14_0_0
   + 0.3369811903144105 edge_16_18_0_0 + 2.242892384822247 edge_16_19_0_0
   + 0.3109041324282868 edge_16_20_0_0 + 0.3330756483702295 edge_18_14_0_0
   + 0.5317876616558621 edge_18_15_0_0 - 0.464455602527416 edge_18_16_0_0
   + 0.6437627128200838 edge_18_19_0_0 + 0.5337033823187436 edge_18_20_0_0
   - 1.127541548763785 edge_19_1_0_0 - 1.939878842424253 edge_19_2_0_0
   - 0.0602893500158005 edge_19_3_0_0 - 0.5204429126790783 edge_19_4_0_0
   - 0.7803609036523383 edge_19_6_0_0 + 0.205991461120672 edge_19_7_0_0
   - 0.3121983120506217 edge_19_8_0_0 + 0.3147939078125274 edge_19_9_0_0
   + 0.0413274958982676 edge_19_10_0_0 - 0.8908616309200899 edge_19_11_0_0
   - 0.2422184221680472 edge_19_13_0_0 + 0.766898413514624 edge_19_14_0_0
   + 0.5945102916027013 edge_19_15_0_0 + 0.3488954818270975 edge_19_16_0_0
   + 3.511429362051604 edge_19_18_0_0 + 1.223991758116814 edge_19_20_0_0
   - 1.418427558323107 edge_20_19_0_0
Subject To
 one_parent_1: edge_0_1_0_0 + edge_2_1_0_0 + edge_3_1_0_0 + edge_4_1_0_0
   + edge_5_1_0_0 + edge_6_1_0_0 + edge_9_1_0_0 + edge_10_1_0_0
   + edge_13_1_0_0 + edge_15_1_0_0 + edge_19_1_0_0 = 1
 consume_one_flow_unit_1: flow_0_1_0_0 - flow_1_2_0_0 - flow_1_3_0_0
   - flow_1_4_0_0 - flow_1_5_0_0 - flow_1_6_0_0 - flow_1_7_0_0
   - flow_1_10_0_0 - flow_1_13_0_0 + flow_2_1_0_0 + flow_3_1_0_0
   + flow_4_1_0_0 + flow_5_1_0_0 + flow_6_1_0_0 + flow_9_1_0_0
   + flow_10_1_0_0 + flow_13_1_0_0 + flow_15_1_0_0 + flow_19_1_0_0 = 1
 one_parent_2: edge_0_2_0_0 + edge_1_2_0_0 + edge_3_2_0_0 + edge_4_2_0_0
   + edge_6_2_0_0 + edge_10_2_0_0 + edge_13_2_0_0 + edge_19_2_0_0 = 1
 consume_one_flow_unit_2: flow_0_2_0_0 + flow_1_2_0_0 - flow_2_1_0_0
   - flow_2_3_0_0 - flow_2_4_0_0 - flow_2_6_0_0 - flow_2_7_0_0
   - flow_2_10_0_0 - flow_2_11_0_0 - flow_2_13_0_0 - flow_2_20_0_0
   + flow_3_2_0_0 + flow_4_2_0_0 + flow_6_2_0_0 + flow_10_2_0_0
   + flow_13_2_0_0 + flow_19_2_0_0 = 1
 one_parent_3: edge_0_3_0_0 + edge_1_3_0_0 + edge_2_3_0_0 + edge_4_3_0_0
   + edge_5_3_0_0 + edge_6_3_0_0 + edge_7_3_0_0 + edge_10_3_0_0
   + edge_11_3_0_0 + edge_13_3_0_0 + edge_19_3_0_0 = 1
 consume_one_flow_unit_3: flow_0_3_0_0 + flow_1_3_0_0 + flow_2_3_0_0
   - flow_3_1_0_0 - flow_3_2_0_0 - flow_3_4_0_0 - flow_3_5_0_0
   - flow_3_6_0_0 - flow_3_7_0_0 - flow_3_8_0_0 - flow_3_9_0_0
   - flow_3_10_0_0 - flow_3_11_0_0 - flow_3_13_0_0 - flow_3_14_0_0
   - flow_3_15_0_0 - flow_3_16_0_0 - flow_3_18_0_0 - flow_3_19_0_0
   - flow_3_20_0_0 + flow_4_3_0_0 + flow_5_3_0_0 + flow_6_3_0_0
   + flow_7_3_0_0 + flow_10_3_0_0 + flow_11_3_0_0 + flow_13_3_0_0
   + flow_19_3_0_0 = 1
 one_parent_4: edge_1_4_0_0 + edge_2_4_0_0 + edge_3_4_0_0 + edge_5_4_0_0
   + edge_6_4_0_0 + edge_7_4_0_0 + edge_8_4_0_0 + edge_9_4_0_0
   + edge_10_4_0_0 + edge_13_4_0_0 + edge_19_4_0_0 = 1
 consume_one_flow_unit_4: flow_1_4_0_0 + flow_2_4_0_0 + flow_3_4_0_0
   - flow_4_1_0_0 - flow_4_2_0_0 - flow_4_3_0_0 - flow_4_5_0_0
   - flow_4_6_0_0 - flow_4_7_0_0 - flow_4_10_0_0 + flow_5_4_0_0
   + flow_6_4_0_0 + flow_7_4_0_0 + flow_8_4_0_0 + flow_9_4_0_0
   + flow_10_4_0_0 + flow_13_4_0_0 + flow_19_4_0_0 = 1
 one_parent_5: edge_0_5_0_0 + edge_1_5_0_0 + edge_3_5_0_0 + edge_4_5_0_0
   + edge_7_5_0_0 + edge_8_5_0_0 + edge_10_5_0_0 + edge_13_5_0_0 = 1
 consume_one_flow_unit_5: flow_0_5_0_0 + flow_1_5_0_0 + flow_3_5_0_0
   + flow_4_5_0_0 - flow_5_1_0_0 - flow_5_3_0_0 - flow_5_4_0_0
   - flow_5_7_0_0 - flow_5_8_0_0 - flow_5_9_0_0 - flow_5_10_0_0
   - flow_5_11_0_0 - flow_5_13_0_0 - flow_5_14_0_0 - flow_5_15_0_0
   - flow_5_18_0_0 - flow_5_19_0_0 - flow_5_20_0_0 + flow_7_5_0_0
   + flow_8_5_0_0 + flow_10_5_0_0 + flow_13_5_0_0 = 1
 one_parent_6: edge_0_6_0_0 + edge_1_6_0_0 + edge_2_6_0_0 + edge_3_6_0_0
   + edge_4_6_0_0 + edge_7_6_0_0 + edge_10_6_0_0 + edge_13_6_0_0
   + edge_19_6_0_0 = 1
 consume_one_flow_unit_6: flow_0_6_0_0 + flow_1_6_0_0 + flow_2_6_0_0
   + flow_3_6_0_0 + flow_4_6_0_0 - flow_6_1_0_0 - flow_6_2_0_0
   - flow_6_3_0_0 - flow_6_4_0_0 - flow_6_7_0_0 - flow_6_9_0_0
   - flow_6_10_0_0 - flow_6_11_0_0 - flow_6_13_0_0 - flow_6_14_0_0
   - flow_6_16_0_0 - flow_6_18_0_0 - flow_6_19_0_0 - flow_6_20_0_0
   + flow_7_6_0_0 + flow_10_6_0_0 + flow_13_6_0_0 + flow_19_6_0_0 = 1
 one_parent_7: edge_0_7_0_0 + edge_1_7_0_0 + edge_2_7_0_0 + edge_3_7_0_0
   + edge_4_7_0_0 + edge_5_7_0_0 + edge_6_7_0_0 + edge_8_7_0_0
   + edge_9_7_0_0 + edge_10_7_0_0 + edge_13_7_0_0 + edge_19_7_0_0 = 1
 consume_one_flow_unit_7: flow_0_7_0_0 + flow_1_7_0_0 + flow_2_7_0_0
   + flow_3_7_0_0 + flow_4_7_0_0 + flow_5_7_0_0 + flow_6_7_0_0
   - flow_7_3_0_0 - flow_7_4_0_0 - flow_7_5_0_0 - flow_7_6_0_0
   - flow_7_8_0_0 - flow_7_9_0_0 - flow_7_10_0_0 + flow_8_7_0_0
   + flow_9_7_0_0 + flow_10_7_0_0 + flow_13_7_0_0 + flow_19_7_0_0 = 1
 one_parent_8: edge_3_8_0_0 + edge_5_8_0_0 + edge_7_8_0_0 + edge_9_8_0_0
   + edge_10_8_0_0 + edge_11_8_0_0 + edge_13_8_0_0 + edge_19_8_0_0 = 1
 consume_one_flow_unit_8: flow_3_8_0_0 + flow_5_8_0_0 + flow_7_8_0_0
   - flow_8_4_0_0 - flow_8_5_0_0 - flow_8_7_0_0 - flow_8_9_0_0
   - flow_8_10_0_0 - flow_8_11_0_0 - flow_8_13_0_0 - flow_8_14_0_0
   - flow_8_15_0_0 - flow_8_18_0_0 - flow_8_19_0_0 - flow_8_20_0_0
   + flow_9_8_0_0 + flow_10_8_0_0 + flow_11_8_0_0 + flow_13_8_0_0
   + flow_19_8_0_0 = 1
 one_parent_9: edge_3_9_0_0 + edge_5_9_0_0 + edge_6_9_0_0 + edge_7_9_0_0
   + edge_8_9_0_0 + edge_10_9_0_0 + edge_11_9_0_0 + edge_13_9_0_0
   + edge_14_9_0_0 + edge_16_9_0_0 + edge_19_9_0_0 = 1
 consume_one_flow_unit_9: flow_3_9_0_0 + flow_5_9_0_0 + flow_6_9_0_0
   + flow_7_9_0_0 + flow_8_9_0_0 - flow_9_1_0_0 - flow_9_4_0_0
   - flow_9_7_0_0 - flow_9_8_0_0 - flow_9_11_0_0 - flow_9_13_0_0
   - flow_9_14_0_0 - flow_9_16_0_0 - flow_9_19_0_0 - flow_9_20_0_0
   + flow_10_9_0_0 + flow_11_9_0_0 + flow_13_9_0_0 + flow_14_9_0_0
   + flow_16_9_0_0 + flow_19_9_0_0 = 1
 one_parent_10: edge_0_10_0_0 + edge_1_10_0_0 + edge_2_10_0_0
   + edge_3_10_0_0 + edge_4_10_0_0 + edge_5_10_0_0 + edge_6_10_0_0
   + edge_7_10_0_0 + edge_8_10_0_0 + edge_11_10_0_0 + edge_13_10_0_0
   + edge_19_10_0_0 = 1
 consume_one_flow_unit_10: flow_0_10_0_0 + flow_1_10_0_0 + flow_2_10_0_0
   + flow_3_10_0_0 + flow_4_10_0_0 + flow_5_10_0_0 + flow_6_10_0_0
   + flow_7_10_0_0 + flow_8_10_0_0 - flow_10_1_0_0 - flow_10_2_0_0
   - flow_10_3_0_0 - flow_10_4_0_0 - flow_10_5_0_0 - flow_10_6_0_0
   - flow_10_7_0_0 - flow_10_8_0_0 - flow_10_9_0_0 - flow_10_11_0_0
   - flow_10_13_0_0 - flow_10_14_0_0 - flow_10_15_0_0 - flow_10_16_0_0
   - flow_10_18_0_0 - flow_10_19_0_0 - flow_10_20_0_0 + flow_11_10_0_0
   + flow_13_10_0_0 + flow_19_10_0_0 = 1
 one_parent_11: edge_2_11_0_0 + edge_3_11_0_0 + edge_5_11_0_0
   + edge_6_11_0_0 + edge_8_11_0_0 + edge_9_11_0_0 + edge_10_11_0_0
   + edge_13_11_0_0 + edge_14_11_0_0 + edge_15_11_0_0 + edge_16_11_0_0
   + edge_19_11_0_0 = 1
 consume_one_flow_unit_11: flow_2_11_0_0 + flow_3_11_0_0 + flow_5_11_0_0
   + flow_6_11_0_0 + flow_8_11_0_0 + flow_9_11_0_0 + flow_10_11_0_0
   - flow_11_3_0_0 - flow_11_8_0_0 - flow_11_9_0_0 - flow_11_10_0_0
   - flow_11_13_0_0 - flow_11_14_0_0 - flow_11_15_0_0 + flow_13_11_0_0
   + flow_14_11_0_0 + flow_15_11_0_0 + flow_16_11_0_0 + flow_19_11_0_0 = 1
 one_parent_12: = 1
 consume_one_flow_unit_12: = 1
 one_parent_13: edge_0_13_0_0 + edge_1_13_0_0 + edge_2_13_0_0
   + edge_3_13_0_0 + edge_5_13_0_0 + edge_6_13_0_0 + edge_8_13_0_0
   + edge_9_13_0_0 + edge_10_13_0_0 + edge_11_13_0_0 + edge_14_13_0_0
   + edge_19_13_0_0 = 1
 consume_one_flow_unit_13: flow_0_13_0_0 + flow_1_13_0_0 + flow_2_13_0_0
   + flow_3_13_0_0 + flow_5_13_0_0 + flow_6_13_0_0 + flow_8_13_0_0
   + flow_9_13_0_0 + flow_10_13_0_0 + flow_11_13_0_0 - flow_13_1_0_0
   - flow_13_2_0_0 - flow_13_3_0_0 - flow_13_4_0_0 - flow_13_5_0_0
   - flow_13_6_0_0 - flow_13_7_0_0 - flow_13_8_0_0 - flow_13_9_0_0
   - flow_13_10_0_0 - flow_13_11_0_0 - flow_13_14_0_0 - flow_13_15_0_0
   - flow_13_16_0_0 - flow_13_18_0_0 - flow_13_19_0_0 - flow_13_20_0_0
   + flow_14_13_0_0 + flow_19_13_0_0 = 1
 one_parent_14: edge_3_14_0_0 + edge_5_14_0_0 + edge_6_14_0_0
   + edge_8_14_0_0 + edge_9_14_0_0 + edge_10_14_0_0 + edge_11_14_0_0
   + edge_13_14_0_0 + edge_15_14_0_0 + edge_16_14_0_0 + edge_18_14_0_0
   + edge_19_14_0_0 = 1
 consume_one_flow_unit_14: flow_3_14_0_0 + flow_5_14_0_0 + flow_6_14_0_0
   + flow_8_14_0_0 + flow_9_14_0_0 + flow_10_14_0_0 + flow_11_14_0_0
   + flow_13_14_0_0 - flow_14_9_0_0 - flow_14_11_0_0 - flow_14_13_0_0
   - flow_14_15_0_0 - flow_14_16_0_0 - flow_14_18_0_0 - flow_14_19_0_0
   - flow_14_20_0_0 + flow_15_14_0_0 + flow_16_14_0_0 + flow_18_14_0_0
   + flow_19_14_0_0 = 1
 one_parent_15: edge_3_15_0_0 + edge_5_15_0_0 + edge_8_15_0_0
   + edge_10_15_0_0 + edge_11_15_0_0 + edge_13_15_0_0 + edge_14_15_0_0
   + edge_18_15_0_0 + edge_19_15_0_0 = 1
 consume_one_flow_unit_15: flow_3_15_0_0 + flow_5_15_0_0 + flow_8_15_0_0
   + flow_10_15_0_0 + flow_11_15_0_0 + flow_13_15_0_0 + flow_14_15_0_0
   - flow_15_1_0_0 - flow_15_11_0_0 - flow_15_14_0_0 - flow_15_18_0_0
   - flow_15_19_0_0 - flow_15_20_0_0 + flow_18_15_0_0 + flow_19_15_0_0 = 1
 one_parent_16: edge_3_16_0_0 + edge_6_16_0_0 + edge_9_16_0_0
   + edge_10_16_0_0 + edge_13_16_0_0 + edge_14_16_0_0 + edge_18_16_0_0
   + edge_19_16_0_0 = 1
 consume_one_flow_unit_16: flow_3_16_0_0 + flow_6_16_0_0 + flow_9_16_0_0
   + flow_10_16_0_0 + flow_13_16_0_0 + flow_14_16_0_0 - flow_16_9_0_0
   - flow_16_11_0_0 - flow_16_14_0_0 - flow_16_18_0_0 - flow_16_19_0_0
   - flow_16_20_0_0 + flow_18_16_0_0 + flow_19_16_0_0 = 1
 one_parent_17: = 1
 consume_one_flow_unit_17: = 1
 one_parent_18: edge_3_18_0_0 + edge_5_18_0_0 + edge_6_18_0_0
   + edge_8_18_0_0 + edge_10_18_0_0 + edge_13_18_0_0 + edge_14_18_0_0
   + edge_15_18_0_0 + edge_16_18_0_0 + edge_19_18_0_0 = 1
 consume_one_flow_unit_18: flow_3_18_0_0 + flow_5_18_0_0 + flow_6_18_0_0
   + flow_8_18_0_0 + flow_10_18_0_0 + flow_13_18_0_0 + flow_14_18_0_0
   + flow_15_18_0_0 + flow_16_18_0_0 - flow_18_14_0_0 - flow_18_15_0_0
   - flow_18_16_0_0 - flow_18_19_0_0 - flow_18_20_0_0 + flow_19_18_0_0 = 1
 one_parent_19: edge_3_19_0_0 + edge_5_19_0_0 + edge_6_19_0_0
   + edge_8_19_0_0 + edge_9_19_0_0 + edge_10_19_0_0 + edge_13_19_0_0
   + edge_14_19_0_0 + edge_15_19_0_0 + edge_16_19_0_0 + edge_18_19_0_0
   + edge_20_19_0_0 = 1
 consume_one_flow_unit_19: flow_3_19_0_0 + flow_5_19_0_0 + flow_6_19_0_0
   + flow_8_19_0_0 + flow_9_19_0_0 + flow_10_19_0_0 + flow_13_19_0_0
   + flow_14_19_0_0 + flow_15_19_0_0 + flow_16_19_0_0 + flow_18_19_0_0
   - flow_19_1_0_0 - flow_19_2_0_0 - flow_19_3_0_0 - flow_19_4_0_0
   - flow_19_6_0_0 - flow_19_7_0_0 - flow_19_8_0_0 - flow_19_9_0_0
   - flow_19_10_0_0 - flow_19_11_0_0 - flow_19_13_0_0 - flow_19_14_0_0
   - flow_19_15_0_0 - flow_19_16_0_0 - flow_19_18_0_0 - flow_19_20_0_0
   + flow_20_19_0_0 = 1
 one_parent_20: edge_2_20_0_0 + edge_3_20_0_0 + edge_5_20_0_0
   + edge_6_20_0_0 + edge_8_20_0_0 + edge_9_20_0_0 + edge_10_20_0_0
   + edge_13_20_0_0 + edge_14_20_0_0 + edge_15_20_0_0 + edge_16_20_0_0
   + edge_18_20_0_0 + edge_19_20_0_0 = 1
 consume_one_flow_unit_20: flow_2_20_0_0 + flow_3_20_0_0 + flow_5_20_0_0
   + flow_6_20_0_0 + flow_8_20_0_0 + flow_9_20_0_0 + flow_10_20_0_0
   + flow_13_20_0_0 + flow_14_20_0_0 + flow_15_20_0_0 + flow_16_20_0_0
   + flow_18_20_0_0 + flow_19_20_0_0 - flow_20_19_0_0 = 1
 root_flow: flow_0_1_0_0 + flow_0_2_0_0 + flow_0_3_0_0 + flow_0_5_0_0
   + flow_0_6_0_0 + flow_0_7_0_0 + flow_0_10_0_0 + flow_0_13_0_0 = 20
 inactive_no_flow_0_1_0_0: flow_0_1_0_0 - 1000 edge_0_1_0_0 <= 0
 inactive_no_flow_0_2_0_0: flow_0_2_0_0 - 1000 edge_0_2_0_0 <= 0
 inactive_no_flow_0_3_0_0: flow_0_3_0_0 - 1000 edge_0_3_0_0 <= 0
 inactive_no_flow_0_5_0_0: flow_0_5_0_0 - 1000 edge_0_5_0_0 <= 0
 inactive_no_flow_0_6_0_0: flow_0_6_0_0 - 1000 edge_0_6_0_0 <= 0
 inactive_no_flow_0_7_0_0: flow_0_7_0_0 - 1000 edge_0_7_0_0 <= 0
 inactive_no_flow_0_10_0_0: flow_0_10_0_0 - 1000 edge_0_10_0_0 <= 0
 inactive_no_flow_0_13_0_0: flow_0_13_0_0 - 1000 edge_0_13_0_0 <= 0
 inactive_no_flow_1_2_0_0: flow_1_2_0_0 - 1000 edge_1_2_0_0 <= 0
 inactive_no_flow_1_3_0_0: flow_1_3_0_0 - 1000 edge_1_3_0_0 <= 0
 inactive_no_flow_1_4_0_0: flow_1_4_0_0 - 1000 edge_1_4_0_0 <= 0
 inactive_no_flow_1_5_0_0: flow_1_5_0_0 - 1000 edge_1_5_0_0 <= 0
 inactive_no_flow_1_6_0_0: flow_1_6_0_0 - 1000 edge_1_6_0_0 <= 0
 inactive_no_flow_1_7_0_0: flow_1_7_0_0 - 1000 edge_1_7_0_0 <= 0
 inactive_no_flow_1_10_0_0: flow_1_10_0_0 - 1000 edge_1_10_0_0 <= 0
 inactive_no_flow_1_13_0_0: flow_1_13_0_0 - 1000 edge_1_13_0_0 <= 0
 inactive_no_flow_2_1_0_0: flow_2_1_0_0 - 1000 edge_2_1_0_0 <= 0
 inactive_no_flow_2_3_0_0: flow_2_3_0_0 - 1000 edge_2_3_0_0 <= 0
 inactive_no_flow_2_4_0_0: flow_2_4_0_0 - 1000 edge_2_4_0_0 <= 0
 inactive_no_flow_2_6_0_0: flow_2_6_0_0 - 1000 edge_2_6_0_0 <= 0
 inactive_no_flow_2_7_0_0: flow_2_7_0_0 - 1000 edge_2_7_0_0 <= 0
 inactive_no_flow_2_10_0_0: flow_2_10_0_0 - 1000 edge_2_10_0_0 <= 0
 inactive_no_flow_2_11_0_0: flow_2_11_0_0 - 1000 edge_2_11_0_0 <= 0
 inactive_no_flow_2_13_0_0: flow_2_13_0_0 - 1000 edge_2_13_0_0 <= 0
 inactive_no_flow_2_20_0_0: flow_2_20_0_0 - 1000 edge_2_20_0_0 <= 0
 inactive_no_flow_3_1_0_0: flow_3_1_0_0 - 1000 edge_3_1_0_0 <= 0
 inactive_no_flow_3_2_0_0: flow_3_2_0_0 - 1000 edge_3_2_0_0 <= 0
 inactive_no_flow_3_4_0_0: flow_3_4_0_0 - 1000 edge_3_4_0_0 <= 0
 inactive_no_flow_3_5_0_0: flow_3_5_0_0 - 1000 edge_3_5_0_0 <= 0
 inactive_no_flow_3_6_0_0: flow_3_6_0_0 - 1000 edge_3_6_0_0 <= 0
 inactive_no_flow_3_7_0_0: flow_3_7_0_0 - 1000 edge_3_7_0_0 <= 0
 inactive_no_flow_3_8_0_0: flow_3_8_0_0 - 1000 edge_3_8_0_0 <= 0
 inactive_no_flow_3_9_0_0: flow_3_9_0_0 - 1000 edge_3_9_0_0 <= 0
 inactive_no_flow_3_10_0_0: flow_3_10_0_0 - 1000 edge_3_10_0_0 <= 0
 inactive_no_flow_3_11_0_0: flow_3_11_0_0 - 1000 edge_3_11_0_0 <= 0
 inactive_no_flow_3_13_0_0: flow_3_13_0_0 - 1000 edge_3_13_0_0 <= 0
 inactive_no_flow_3_14_0_0: flow_3_14_0_0 - 1000 edge_3_14_0_0 <= 0
 inactive_no_flow_3_15_0_0: flow_3_15_0_0 - 1000 edge_3_15_0_0 <= 0
 inactive_no_flow_3_16_0_0: flow_3_16_0_0 - 1000 edge_3_16_0_0 <= 0
 inactive_no_flow_3_18_0_0: flow_3_18_0_0 - 1000 edge_3_18_0_0 <= 0
 inactive_no_flow_3_19_0_0: flow_3_19_0_0 - 1000 edge_3_19_0_0 <= 0
 inactive_no_flow_3_20_0_0: flow_3_20_0_0 - 1000 edge_3_20_0_0 <= 0
 inactive_no_flow_4_1_0_0: flow_4_1_0_0 - 1000 edge_4_1_0_0 <= 0
 inactive_no_flow_4_2_0_0: flow_4_2_0_0 - 1000 edge_4_2_0_0 <= 0
 inactive_no_flow_4_3_0_0: flow_4_3_0_0 - 1000 edge_4_3_0_0 <= 0
 inactive_no_flow_4_5_0_0: flow_4_5_0_0 - 1000 edge_4_5_0_0 <= 0
 inactive_no_flow_4_6_0_0: flow_4_6_0_0 - 1000 edge_4_6_0_0 <= 0
 inactive_no_flow_4_7_0_0: flow_4_7_0_0 - 1000 edge_4_7_0_0 <= 0
 inactive_no_flow_4_10_0_0: flow_4_10_0_0 - 1000 edge_4_10_0_0 <= 0
 inactive_no_flow_5_1_0_0: flow_5_1_0_0 - 1000 edge_5_1_0_0 <= 0
 inactive_no_flow_5_3_0_0: flow_5_3_0_0 - 1000 edge_5_3_0_0 <= 0
 inactive_no_flow_5_4_0_0: flow_5_4_0_0 - 1000 edge_5_4_0_0 <= 0
 inactive_no_flow_5_7_0_0: flow_5_7_0_0 - 1000 edge_5_7_0_0 <= 0
 inactive_no_flow_5_8_0_0: flow_5_8_0_0 - 1000 edge_5_8_0_0 <= 0
 inactive_no_flow_5_9_0_0: flow_5_9_0_0 - 1000 edge_5_9_0_0 <= 0
 inactive_no_flow_5_10_0_0: flow_5_10_0_0 - 1000 edge_5_10_0_0 <= 0
 inactive_no_flow_5_11_0_0: flow_5_11_0_0 - 1000 edge_5_11_0_0 <= 0
 inactive_no_flow_5_13_0_0: flow_5_13_0_0 - 1000 edge_5_13_0_0 <= 0
 inactive_no_flow_5_14_0_0: flow_5_14_0_0 - 1000 edge_5_14_0_0 <= 0
 inactive_no_flow_5_15_0_0: flow_5_15_0_0 - 1000 edge_5_15_0_0 <= 0
 inactive_no_flow_5_18_0_0: flow_5_18_0_0 - 1000 edge_5_18_0_0 <= 0
 inactive_no_flow_5_19_0_0: flow_5_19_0_0 - 1000 edge_5_19_0_0 <= 0
 inactive_no_flow_5_20_0_0: flow_5_20_0_0 - 1000 edge_5_20_0_0 <= 0
 inactive_no_flow_6_1_0_0: flow_6_1_0_0 - 1000 edge_6_1_0_0 <= 0
 inactive_no_flow_6_2_0_0: flow_6_2_0_0 - 1000 edge_6_2_0_0 <= 0
 inactive_no_flow_6_3_0_0: flow_6_3_0_0 - 1000 edge_6_3_0_0 <= 0
 inactive_no_flow_6_4_0_0: flow_6_4_0_0 - 1000 edge_6_4_0_0 <= 0
 inactive_no_flow_6_7_0_0: flow_6_7_0_0 - 1000 edge_6_7_0_0 <= 0
 inactive_no_flow_6_9_0_0: flow_6_9_0_0 - 1000 edge_6_9_0_0 <= 0
 inactive_no_flow_6_10_0_0: flow_6_10_0_0 - 1000 edge_6_10_0_0 <= 0
 inactive_no_flow_6_11_0_0: flow_6_11_0_0 - 1000 edge_6_11_0_0 <= 0
 inactive_no_flow_6_13_0_0: flow_6_13_0_0 - 1000 edge_6_13_0_0 <= 0
 inactive_no_flow_6_14_0_0: flow_6_14_0_0 - 1000 edge_6_14_0_0 <= 0
 inactive_no_flow_6_16_0_0: flow_6_16_0_0 - 1000 edge_6_16_0_0 <= 0
 inactive_no_flow_6_18_0_0: flow_6_18_0_0 - 1000 edge_6_18_0_0 <= 0
 inactive_no_flow_6_19_0_0: flow_6_19_0_0 - 1000 edge_6_19_0_0 <= 0
 inactive_no_flow_6_20_0_0: flow_6_20_0_0 - 1000 edge_6_20_0_0 <= 0
 inactive_no_flow_7_3_0_0: flow_7_3_0_0 - 1000 edge_7_3_0_0 <= 0
 inactive_no_flow_7_4_0_0: flow_7_4_0_0 - 1000 edge_7_4_0_0 <= 0
 inactive_no_flow_7_5_0_0: flow_7_5_0_0 - 1000 edge_7_5_0_0 <= 0
 inactive_no_flow_7_6_0_0: flow_7_6_0_0 - 1000 edge_7_6_0_0 <= 0
 inactive_no_flow_7_8_0_0: flow_7_8_0_0 - 1000 edge_7_8_0_0 <= 0
 inactive_no_flow_7_9_0_0: flow_7_9_0_0 - 1000 edge_7_9_0_0 <= 0
 inactive_no_flow_7_10_0_0: flow_7_10_0_0 - 1000 edge_7_10_0_0 <= 0
 inactive_no_flow_8_4_0_0: flow_8_4_0_0 - 1000 edge_8_4_0_0 <= 0
 inactive_no_flow_8_5_0_0: flow_8_5_0_0 - 1000 edge_8_5_0_0 <= 0
 inactive_no_flow_8_7_0_0: flow_8_7_0_0 - 1000 edge_8_7_0_0 <= 0
 inactive_no_flow_8_9_0_0: flow_8_9_0_0 - 1000 edge_8_9_0_0 <= 0
 inactive_no_flow_8_10_0_0: flow_8_10_0_0 - 1000 edge_8_10_0_0 <= 0
 inactive_no_flow_8_11_0_0: flow_8_11_0_0 - 1000 edge_8_11_0_0 <= 0
 inactive_no_flow_8_13_0_0: flow_8_13_0_0 - 1000 edge_8_13_0_0 <= 0
 inactive_no_flow_8_14_0_0: flow_8_14_0_0 - 1000 edge_8_14_0_0 <= 0
 inactive_no_flow_8_15_0_0: flow_8_15_0_0 - 1000 edge_8_15_0_0 <= 0
 inactive_no_flow_8_18_0_0: flow_8_18_0_0 - 1000 edge_8_18_0_0 <= 0
 inactive_no_flow_8_19_0_0: flow_8_19_0_0 - 1000 edge_8_19_0_0 <= 0
 inactive_no_flow_8_20_0_0: flow_8_20_0_0 - 1000 edge_8_20_0_0 <= 0
 inactive_no_flow_9_1_0_0: flow_9_1_0_0 - 1000 edge_9_1_0_0 <= 0
 inactive_no_flow_9_4_0_0: flow_9_4_0_0 - 1000 edge_9_4_0_0 <= 0
 inactive_no_flow_9_7_0_0: flow_9_7_0_0 - 1000 edge_9_7_0_0 <= 0
 inactive_no_flow_9_8_0_0: flow_9_8_0_0 - 1000 edge_9_8_0_0 <= 0
 inactive_no_flow_9_11_0_0: flow_9_11_0_0 - 1000 edge_9_11_0_0 <= 0
 inactive_no_flow_9_13_0_0: flow_9_13_0_0 - 1000 edge_9_13_0_0 <= 0
 inactive_no_flow_9_14_0_0: flow_9_14_0_0 - 1000 edge_9_14_0_0 <= 0
 inactive_no_flow_9_16_0_0: flow_9_16_0_0 - 1000 edge_9_16_0_0 <= 0
 inactive_no_flow_9_19_0_0: flow_9_19_0_0 - 1000 edge_9_19_0_0 <= 0
 inactive_no_flow_9_20_0_0: flow_9_20_0_0 - 1000 edge_9_20_0_0 <= 0
 inactive_no_flow_10_1_0_0: flow_10_1_0_0 - 1000 edge_10_1_0_0 <= 0
 inactive_no_flow_10_2_0_0: flow_10_2_0_0 - 1000 edge_10_2_0_0 <= 0
 inactive_no_flow_10_3_0_0: flow_10_3_0_0 - 1000 edge_10_3_0_0 <= 0
 inactive_no_flow_10_4_0_0: flow_10_4_0_0 - 1000 edge_10_4_0_0 <= 0
 inactive_no_flow_10_5_0_0: flow_10_5_0_0 - 1000 edge_10_5_0_0 <= 0
 inactive_no_flow_10_6_0_0: flow_10_6_0_0 - 1000 edge_10_6_0_0 <= 0
 inactive_no_flow_10_7_0_0: flow_10_7_0_0 - 1000 edge_10_7_0_0 <= 0
 inactive_no_flow_10_8_0_0: flow_10_8_0_0 - 1000 edge_10_8_0_0 <= 0
 inactive_no_flow_10_9_0_0: flow_10_9_0_0 - 1000 edge_10_9_0_0 <= 0
 inactive_no_flow_10_11_0_0: flow_10_11_0_0 - 1000 edge_10_11_0_0 <= 0
 inactive_no_flow_10_13_0_0: flow_10_13_0_0 - 1000 edge_10_13_0_0 <= 0
 inactive_no_flow_10_14_0_0: flow_10_14_0_0 - 1000 edge_10_14_0_0 <= 0
 inactive_no_flow_10_15_0_0: flow_10_15_0_0 - 1000 edge_10_15_0_0 <= 0
 inactive_no_flow_10_16_0_0: flow_10_16_0_0 - 1000 edge_10_16_0_0 <= 0
 inactive_no_flow_10_18_0_0: flow_10_18_0_0 - 1000 edge_10_18_0_0 <= 0
 inactive_no_flow_10_19_0_0: flow_10_19_0_0 - 1000 edge_10_19_0_0 <= 0
 inactive_no_flow_10_20_0_0: flow_10_20_0_0 - 1000 edge_10_20_0_0 <= 0
 inactive_no_flow_11_3_0_0: flow_11_3_0_0 - 1000 edge_11_3_0_0 <= 0
 inactive_no_flow_11_8_0_0: flow_11_8_0_0 - 1000 edge_11_8_0_0 <= 0
 inactive_no_flow_11_9_0_0: flow_11_9_0_0 - 1000 edge_11_9_0_0 <= 0
 inactive_no_flow_11_10_0_0: flow_11_10_0_0 - 1000 edge_11_10_0_0 <= 0
 inactive_no_flow_11_13_0_0: flow_11_13_0_0 - 1000 edge_11_13_0_0 <= 0
 inactive_no_flow_11_14_0_0: flow_11_14_0_0 - 1000 edge_11_14_0_0 <= 0
 inactive_no_flow_11_15_0_0: flow_11_15_0_0 - 1000 edge_11_15_0_0 <= 0
 inactive_no_flow_13_1_0_0: flow_13_1_0_0 - 1000 edge_13_1_0_0 <= 0
 inactive_no_flow_13_2_0_0: flow_13_2_0_0 - 1000 edge_13_2_0_0 <= 0
 inactive_no_flow_13_3_0_0: flow_13_3_0_0 - 1000 edge_13_3_0_0 <= 0
 inactive_no_flow_13_4_0_0: flow_13_4_0_0 - 1000 edge_13_4_0_0 <= 0
 inactive_no_flow_13_5_0_0: flow_13_5_0_0 - 1000 edge_13_5_0_0 <= 0
 inactive_no_flow_13_6_0_0: flow_13_6_0_0 - 1000 edge_13_6_0_0 <= 0
 inactive_no_flow_13_7_0_0: flow_13_7_0_0 - 1000 edge_13_7_0_0 <= 0
 inactive_no_flow_13_8_0_0: flow_13_8_0_0 - 1000 edge_13_8_0_0 <= 0
 inactive_no_flow_13_9_0_0: flow_13_9_0_0 - 1000 edge_13_9_0_0 <= 0
 inactive_no_flow_13_10_0_0: flow_13_10_0_0 - 1000 edge_13_10_0_0 <= 0
 inactive_no_flow_13_11_0_0: flow_13_11_0_0 - 1000 edge_13_11_0_0 <= 0
 inactive_no_flow_13_14_0_0: flow_13_14_0_0 - 1000 edge_13_14_0_0 <= 0
 inactive_no_flow_13_15_0_0: flow_13_15_0_0 - 1000 edge_13_15_0_0 <= 0
 inactive_no_flow_13_16_0_0: flow_13_16_0_0 - 1000 edge_13_16_0_0 <= 0
 inactive_no_flow_13_18_0_0: flow_13_18_0_0 - 1000 edge_13_18_0_0 <= 0
 inactive_no_flow_13_19_0_0: flow_13_19_0_0 - 1000 edge_13_19_0_0 <= 0
 inactive_no_flow_13_20_0_0: flow_13_20_0_0 - 1000 edge_13_20_0_0 <= 0
 inactive_no_flow_14_9_0_0: flow_14_9_0_0 - 1000 edge_14_9_0_0 <= 0
 inactive_no_flow_14_11_0_0: flow_14_11_0_0 - 1000 edge_14_11_0_0 <= 0
 inactive_no_flow_14_13_0_0: flow_14_13_0_0 - 1000 edge_14_13_0_0 <= 0
 inactive_no_flow_14_15_0_0: flow_14_15_0_0 - 1000 edge_14_15_0_0 <= 0
 inactive_no_flow_14_16_0_0: flow_14_16_0_0 - 1000 edge_14_16_0_0 <= 0
 inactive_no_flow_14_18_0_0: flow_14_18_0_0 - 1000 edge_14_18_0_0 <= 0
 inactive_no_flow_14_19_0_0: flow_14_19_0_0 - 1000 edge_14_19_0_0 <= 0
 inactive_no_flow_14_20_0_0: flow_14_20_0_0 - 1000 edge_14_20_0_0 <= 0
 inactive_no_flow_15_1_0_0: flow_15_1_0_0 - 1000 edge_15_1_0_0 <= 0
 inactive_no_flow_15_11_0_0: flow_15_11_0_0 - 1000 edge_15_11_0_0 <= 0
 inactive_no_flow_15_14_0_0: flow_15_14_0_0 - 1000 edge_15_14_0_0 <= 0
 inactive_no_flow_15_18_0_0: flow_15_18_0_0 - 1000 edge_15_18_0_0 <= 0
 inactive_no_flow_15_19_0_0: flow_15_19_0_0 - 1000 edge_15_19_0_0 <= 0
 inactive_no_flow_15_20_0_0: flow_15_20_0_0 - 1000 edge_15_20_0_0 <= 0
 inactive_no_flow_16_9_0_0: flow_16_9_0_0 - 1000 edge_16_9_0_0 <= 0
 inactive_no_flow_16_11_0_0: flow_16_11_0_0 - 1000 edge_16_11_0_0 <= 0
 inactive_no_flow_16_14_0_0: flow_16_14_0_0 - 1000 edge_16_14_0_0 <= 0
 inactive_no_flow_16_18_0_0: flow_16_18_0_0 - 1000 edge_16_18_0_0 <= 0
 inactive_no_flow_16_19_0_0: flow_16_19_0_0 - 1000 edge_16_19_0_0 <= 0
 inactive_no_flow_16_20_0_0: flow_16_20_0_0 - 1000 edge_16_20_0_0 <= 0
 inactive_no_flow_18_14_0_0: flow_18_14_0_0 - 1000 edge_18_14_0_0 <= 0
 inactive_no_flow_18_15_0_0: flow_18_15_0_0 - 1000 edge_18_15_0_0 <= 0
 inactive_no_flow_18_16_0_0: flow_18_16_0_0 - 1000 edge_18_16_0_0 <= 0
 inactive_no_flow_18_19_0_0: flow_18_19_0_0 - 1000 edge_18_19_0_0 <= 0
 inactive_no_flow_18_20_0_0: flow_18_20_0_0 - 1000 edge_18_20_0_0 <= 0
 inactive_no_flow_19_1_0_0: flow_19_1_0_0 - 1000 edge_19_1_0_0 <= 0
 inactive_no_flow_19_2_0_0: flow_19_2_0_0 - 1000 edge_19_2_0_0 <= 0
 inactive_no_flow_19_3_0_0: flow_19_3_0_0 - 1000 edge_19_3_0_0 <= 0
 inactive_no_flow_19_4_0_0: flow_19_4_0_0 - 1000 edge_19_4_0_0 <= 0
 inactive_no_flow_19_6_0_0: flow_19_6_0_0 - 1000 edge_19_6_0_0 <= 0
 inactive_no_flow_19_7_0_0: flow_19_7_0_0 - 1000 edge_19_7_0_0 <= 0
 inactive_no_flow_19_8_0_0: flow_19_8_0_0 - 1000 edge_19_8_0_0 <= 0
 inactive_no_flow_19_9_0_0: flow_19_9_0_0 - 1000 edge_19_9_0_0 <= 0
 inactive_no_flow_19_10_0_0: flow_19_10_0_0 - 1000 edge_19_10_0_0 <= 0
 inactive_no_flow_19_11_0_0: flow_19_11_0_0 - 1000 edge_19_11_0_0 <= 0
 inactive_no_flow_19_13_0_0: flow_19_13_0_0 - 1000 edge_19_13_0_0 <= 0
 inactive_no_flow_19_14_0_0: flow_19_14_0_0 - 1000 edge_19_14_0_0 <= 0
 inactive_no_flow_19_15_0_0: flow_19_15_0_0 - 1000 edge_19_15_0_0 <= 0
 inactive_no_flow_19_16_0_0: flow_19_16_0_0 - 1000 edge_19_16_0_0 <= 0
 inactive_no_flow_19_18_0_0: flow_19_18_0_0 - 1000 edge_19_18_0_0 <= 0
 inactive_no_flow_19_20_0_0: flow_19_20_0_0 - 1000 edge_19_20_0_0 <= 0
 inactive_no_flow_20_19_0_0: flow_20_19_0_0 - 1000 edge_20_19_0_0 <= 0
Bounds
Binaries
 edge_0_1_0_0 edge_0_2_0_0 edge_0_3_0_0 edge_0_5_0_0 edge_0_6_0_0
 edge_0_7_0_0 edge_0_10_0_0 edge_0_13_0_0 edge_1_2_0_0 edge_1_3_0_0
 edge_1_4_0_0 edge_1_5_0_0 edge_1_6_0_0 edge_1_7_0_0 edge_1_10_0_0
 edge_1_13_0_0 edge_2_1_0_0 edge_2_3_0_0 edge_2_4_0_0 edge_2_6_0_0
 edge_2_7_0_0 edge_2_10_0_0 edge_2_11_0_0 edge_2_13_0_0 edge_2_20_0_0
 edge_3_1_0_0 edge_3_2_0_0 edge_3_4_0_0 edge_3_5_0_0 edge_3_6_0_0
 edge_3_7_0_0 edge_3_8_0_0 edge_3_9_0_0 edge_3_10_0_0 edge_3_11_0_0
 edge_3_13_0_0 edge_3_14_0_0 edge_3_15_0_0 edge_3_16_0_0 edge_3_18_0_0
 edge_3_19_0_0 edge_3_20_0_0 edge_4_1_0_0 edge_4_2_0_0 edge_4_3_0_0
 edge_4_5_0_0 edge_4_6_0_0 edge_4_7_0_0 edge_4_10_0_0 edge_5_1_0_0
 edge_5_3_0_0 edge_5_4_0_0 edge_5_7_0_0 edge_5_8_0_0 edge_5_9_0_0
 edge_5_10_0_0 edge_5_11_0_0 edge_5_13_0_0 edge_5_14_0_0 edge_5_15_0_0
 edge_5_18_0_0 edge_5_19_0_0 edge_5_20_0_0 edge_6_1_0_0 edge_6_2_0_0
 edge_6_3_0_0 edge_6_4_0_0 edge_6_7_0_0 edge_6_9_0_0 edge_6_10_0_0
 edge_6_11_0_0 edge_6_13_0_0 edge_6_14_0_0 edge_6_16_0_0 edge_6_18_0_0
 edge_6_19_0_0 edge_6_20_0_0 edge_7_3_0_0 edge_7_4_0_0 edge_7_5_0_0
 edge_7_6_0_0 edge_7_8_0_0 edge_7_9_0_0 edge_7_10_0_0 edge_8_4_0_0
 edge_8_5_0_0 edge_8_7_0_0 edge_8_9_0_0 edge_8_10_0_0 edge_8_11_0_0
 edge_8_13_0_0 edge_8_14_0_0 edge_8_15_0_0 edge_8_18_0_0 edge_8_19_0_0
 edge_8_20_0_0 edge_9_1_0_0 edge_9_4_0_0 edge_9_7_0_0 edge_9_8_0_0
 edge_9_11_0_0 edge_9_13_0_0 edge_9_14_0_0 edge_9_16_0_0 edge_9_19_0_0
 edge_9_20_0_0 edge_10_1_0_0 edge_10_2_0_0 edge_10_3_0_0 edge_10_4_0_0
 edge_10_5_0_0 edge_10_6_0_0 edge_10_7_0_0 edge_10_8_0_0 edge_10_9_0_0
 edge_10_11_0_0 edge_10_13_0_0 edge_10_14_0_0 edge_10_15_0_0 edge_10_16_0_0
 edge_10_18_0_0 edge_10_19_0_0 edge_10_20_0_0 edge_11_3_0_0 edge_11_8_0_0
 edge_11_9_0_0 edge_11_10_0_0 edge_11_13_0_0 edge_11_14_0_0 edge_11_15_0_0
 edge_13_1_0_0 edge_13_2_0_0 edge_13_3_0_0 edge_13_4_0_0 edge_13_5_0_0
 edge_13_6_0_0 edge_13_7_0_0 edge_13_8_0_0 edge_13_9_0_0 edge_13_10_0_0
 edge_13_11_0_0 edge_13_14_0_0 edge_13_15_0_0 edge_13_16_0_0 edge_13_18_0_0
 edge_13_19_0_0 edge_13_20_0_0 edge_14_9_0_0 edge_14_11_0_0 edge_14_13_0_0
 edge_14_15_0_0 edge_14_16_0_0 edge_14_18_0_0 edge_14_19_0_0 edge_14_20_0_0
 edge_15_1_0_0 edge_15_11_0_0 edge_15_14_0_0 edge_15_18_0_0 edge_15_19_0_0
 edge_15_20_0_0 edge_16_9_0_0 edge_16_11_0_0 edge_16_14_0_0 edge_16_18_0_0
 edge_16_19_0_0 edge_16_20_0_0 edge_18_14_0_0 edge_18_15_0_0 edge_18_16_0_0
 edge_18_19_0_0 edge_18_20_0_0 edge_19_1_0_0 edge_19_2_0_0 edge_19_3_0_0
 edge_19_4_0_0 edge_19_6_0_0 edge_19_7_0_0 edge_19_8_0_0 edge_19_9_0_0
 edge_19_10_0_0 edge_19_11_0_0 edge_19_13_0_0 edge_19_14_0_0 edge_19_15_0_0
 edge_19_16_0_0 edge_19_18_0_0 edge_19_20_0_0 edge_20_19_0_0
End
